814
807
1087
2008
1060
591
217
826
317
173
1885
1345
1988
835
1498
1248
1311
483
1202
846
2096
1517
383
783
1545
1615
92
1403
1575
1681
367
1958
1732
941
138
1526
250
538
275
689
1151
497
854
2160
1562
518
678
996
992
1489
